data/CVRPLIB/Vrp-Set-XML100/instances/XML100_3212_06.vrp
NAME : XML100_3212_06
COMMENT : Generated by Queiroga, Sadykov, Uchoa, and Vidal (2021)
TYPE : CVRP
DIMENSION : 101
EDGE_WEIGHT_TYPE : EUC_2D
CAPACITY : 5
NODE_COORD_SECTION
1    0    0   
2    800  763 
3    642  380 
4    917  924 
5    453  114 
6    379  272 
7    658  432 
8    171  501 
9    851  689 
10   542  384 
11   331  186 
12   488  253 
13   115  397 
14   735  867 
15   142  317 
16   734  321 
17   767  701 
18   547  643 
19   249  156 
20   523  285 
21   159  446 
22   657  462 
23   695  412 
24   410  246 
25   601  429 
26   859  746 
27   171  374 
28   694  728 
29   624  419 
30   758  421 
31   714  824 
32   708  259 
33   673  925 
34   490  233 
35   197  452 
36   196  348 
37   438  312 
38   211  326 
39   295  300 
40   509  361 
41   24   441 
42   256  464 
43   575  355 
44   671  958 
45   822  244 
46   705  726 
47   639  521 
48   158  419 
49   744  787 
50   328  231 
51   534  812 
52   725  805 
53   497  204 
54   583  508 
55   658  480 
56   881  787 
57   701  744 
58   604  490 
59   452  254 
60   590  500 
61   604  376 
62   495  332 
63   275  639 
64   582  331 
65   437  330 
66   135  490 
67   791  716 
68   474  272 
69   472  294 
70   711  434 
71   351  375 
72   642  753 
73   778  898 
74   655  428 
75   157  337 
76   727  446 
77   484  296 
78   67   521 
79   612  385 
80   656  427 
81   778  842 
82   502  300 
83   303  437 
84   711  485 
85   663  537 
86   683  446 
87   719  757 
88   159  401 
89   687  779 
90   677  442 
91   157  324 
92   648  431 
93   665  471 
94   752  703 
95   84   344 
96   782  855 
97   201  463 
98   247  431 
99   142  500 
100  523  172 
101  598  96  
DEMAND_SECTION
1    0   
2    1   
3    1   
4    1   
5    1   
6    1   
7    1   
8    1   
9    1   
10   1   
11   1   
12   1   
13   1   
14   1   
15   1   
16   1   
17   1   
18   1   
19   1   
20   1   
21   1   
22   1   
23   1   
24   1   
25   1   
26   1   
27   1   
28   1   
29   1   
30   1   
31   1   
32   1   
33   1   
34   1   
35   1   
36   1   
37   1   
38   1   
39   1   
40   1   
41   1   
42   1   
43   1   
44   1   
45   1   
46   1   
47   1   
48   1   
49   1   
50   1   
51   1   
52   1   
53   1   
54   1   
55   1   
56   1   
57   1   
58   1   
59   1   
60   1   
61   1   
62   1   
63   1   
64   1   
65   1   
66   1   
67   1   
68   1   
69   1   
70   1   
71   1   
72   1   
73   1   
74   1   
75   1   
76   1   
77   1   
78   1   
79   1   
80   1   
81   1   
82   1   
83   1   
84   1   
85   1   
86   1   
87   1   
88   1   
89   1   
90   1   
91   1   
92   1   
93   1   
94   1   
95   1   
96   1   
97   1   
98   1   
99   1   
100  1   
101  1   
DEPOT_SECTION
1
-1
EOF
