data/CVRPLIB/Vrp-Set-XML100/solutions/XML100_3212_06.sol
Route #1: 8 25 66 16 93
Route #2: 53 59 46 84 57
Route #3: 60 78 28 24 9
Route #4: 80 95 3 55 1
Route #5: 21 54 92 85 89
Route #6: 40 77 98 65 20
Route #7: 2 79 73 6 91
Route #8: 17 71 56 45 27
Route #9: 83 75 29 69 22
Route #10: 94 12 47 87 26
Route #11: 19 63 42 39 61
Route #12: 88 30 51 48 86
Route #13: 13 72 43 32 50
Route #14: 23 68 76 81 67
Route #15: 58 11 33 52 4
Route #16: 37 35 74 90 14
Route #17: 99 31 15 44 100
Route #18: 18 38 70 82 97
Route #19: 41 62 7 96 34
Route #20: 49 5 64 36 10
Cost 32242
